32      3       
21      24      17      
0       0       0       0       3       2       3       4       
5       0       1       0       3       5       9       12      
7       0       1       6       3       11      24      27      
1       0       6       0       2       6       10      
7       0       2       0       2       15      16      
8       0       3       0       2       7       8       
2       0       5       3       1       21      
8       9       0       0       2       19      22      
8       0       0       4       1       31      
3       10      0       0       3       14      20      23      
4       0       9       0       2       13      28      
6       0       4       10      1       16      
9       4       0       1       1       14      
10      0       0       10      1       17      
2       1       0       0       1       17      
8       9       5       0       1       25      
9       0       6       0       2       18      25      
9       4       10      0       2       21      30      
8       3       1       6       1       30      
6       3       9       4       1       21      
2       0       0       1       1       31      
2       4       0       8       2       26      28      
1       0       7       10      1       26      
10      9       9       0       1       31      
7       6       0       5       2       26      30      
10      0       0       6       1       29      
1       9       0       4       1       29      
3       0       4       0       1       29      
3       0       0       1       1       32      
8       8       0       5       1       32      
10      0       2       0       1       32      
0       0       0       0       0       